feasible solution found by trivial heuristic after 0.0 seconds, objective value 0.000000e+00
presolving:
   (0.1s) running MILP presolver
   (0.2s) MILP presolver (2 rounds): 0 aggregations, 0 fixings, 0 bound changes
(round 1, exhaustive) 0 del vars, 89 del conss, 0 add conss, 0 chg bounds, 0 chg sides, 0 chg coeffs, 0 upgd conss, 0 impls, 32449 clqs
(round 2, exhaustive) 0 del vars, 89 del conss, 0 add conss, 0 chg bounds, 0 chg sides, 0 chg coeffs, 32449 upgd conss, 0 impls, 32449 clqs
   (0.5s) probing: 51/421 (12.1%) - 0 fixings, 0 aggregations, 0 implications, 0 bound changes
   (0.5s) probing aborted: 50/50 successive totally useless probings
   (0.7s) symmetry computation started: requiring (bin +, int -, cont +), (fixed: bin -, int +, cont -)
   (0.7s) no symmetry present
presolving (3 rounds: 3 fast, 3 medium, 3 exhaustive):
 0 deleted vars, 89 deleted constraints, 0 added constraints, 0 tightened bounds, 0 added holes, 0 changed sides, 0 changed coefficients
 0 implications, 32449 cliques
presolved problem has 421 variables (421 bin, 0 int, 0 impl, 0 cont) and 32449 constraints
  32449 constraints of type <setppc>
Presolving Time: 0.71
transformed 1/1 original solutions to the transformed problem space

 time | node  | left  |LP iter|LP it/n|mem/heur|mdpt |vars |cons |rows |cuts |sepa|confs|strbr|  dualbound   | primalbound  |  gap   | compl. 
p 0.8s|     1 |     0 |     0 |     - |  clique|   0 | 421 |  32k|  32k|   0 |  0 |   0 |   0 | 3.789755e+02 | 1.134245e+01 |3241.21%| unknown
p 0.8s|     1 |     0 |     0 |     - |   locks|   0 | 421 |  32k|  32k|   0 |  0 |   0 |   0 | 3.789755e+02 | 9.681447e+01 | 291.45%| unknown
  1.2s|     1 |     0 |   935 |     - |   176M |   0 | 421 |  29k|  32k|   0 |  0 |   0 |   0 | 1.090374e+02 | 9.681447e+01 |  12.63%| unknown
  2.9s|     1 |     0 |   982 |     - |   181M |   0 | 421 |  29k|  32k|   2 |  1 |   0 |   0 | 1.088888e+02 | 9.681447e+01 |  12.47%| unknown
  3.5s|     1 |     0 |  1196 |     - |   185M |   0 | 421 |  29k|  32k|   5 |  2 |   0 |   0 | 1.083158e+02 | 9.681447e+01 |  11.88%| unknown
  7.1s|     1 |     0 |  1440 |     - |   188M |   0 | 421 |  29k|  32k|  10 |  3 |   0 |   0 | 1.079004e+02 | 9.681447e+01 |  11.45%| unknown
 13.6s|     1 |     0 |  1665 |     - |   192M |   0 | 421 |  29k|  32k|  17 |  4 |   0 |   0 | 1.070391e+02 | 9.681447e+01 |  10.56%| unknown
 17.5s|     1 |     0 |  1949 |     - |   196M |   0 | 421 |  29k|  32k|  24 |  5 |   0 |   0 | 1.063033e+02 | 9.681447e+01 |   9.80%| unknown
 19.4s|     1 |     0 |  2108 |     - |   200M |   0 | 421 |  29k|  32k|  30 |  6 |   0 |   0 | 1.058642e+02 | 9.681447e+01 |   9.35%| unknown
 20.0s|     1 |     0 |  2506 |     - |   204M |   0 | 421 |  29k|  32k|  38 |  7 |   0 |   0 | 1.048937e+02 | 9.681447e+01 |   8.35%| unknown
 23.6s|     1 |     0 |  2784 |     - |   207M |   0 | 421 |  29k|  32k|  45 |  8 |   0 |   0 | 1.041542e+02 | 9.681447e+01 |   7.58%| unknown
 24.9s|     1 |     0 |  3220 |     - |   212M |   0 | 421 |  29k|  32k|  53 |  9 |   0 |   0 | 1.033004e+02 | 9.681447e+01 |   6.70%| unknown
 31.5s|     1 |     0 |  3561 |     - |   217M |   0 | 421 |  29k|  32k|  61 | 10 |   0 |   0 | 1.027823e+02 | 9.681447e+01 |   6.16%| unknown
 31.8s|     1 |     0 |  3927 |     - |   221M |   0 | 421 |  29k|  32k|  68 | 11 |   0 |   0 | 1.022800e+02 | 9.681447e+01 |   5.65%| unknown
 32.1s|     1 |     0 |  4335 |     - |   224M |   0 | 421 |  29k|  32k|  74 | 12 |   0 |   0 | 1.015183e+02 | 9.681447e+01 |   4.86%| unknown
 time | node  | left  |LP iter|LP it/n|mem/heur|mdpt |vars |cons |rows |cuts |sepa|confs|strbr|  dualbound   | primalbound  |  gap   | compl. 
 32.3s|     1 |     0 |  4577 |     - |   228M |   0 | 421 |  29k|  32k|  79 | 13 |   0 |   0 | 1.010742e+02 | 9.681447e+01 |   4.40%| unknown
 32.5s|     1 |     0 |  4890 |     - |   231M |   0 | 421 |  29k|  32k|  86 | 14 |   0 |   0 | 1.006854e+02 | 9.681447e+01 |   4.00%| unknown
 32.8s|     1 |     0 |  5309 |     - |   234M |   0 | 421 |  29k|  32k|  91 | 15 |   0 |   0 | 9.981934e+01 | 9.681447e+01 |   3.10%| unknown
 33.0s|     1 |     0 |  5611 |     - |   238M |   0 | 421 |  29k|  32k|  95 | 16 |   0 |   0 | 9.926372e+01 | 9.681447e+01 |   2.53%| unknown
 33.1s|     1 |     0 |  5806 |     - |   241M |   0 | 421 |  29k|  32k|  96 | 17 |   0 |   0 | 9.904526e+01 | 9.681447e+01 |   2.30%| unknown
 33.5s|     1 |     0 |  6330 |     - |   244M |   0 | 421 |  29k|  32k|  99 | 18 |   0 |   0 | 9.797320e+01 | 9.681447e+01 |   1.20%| unknown
 33.5s|     1 |     0 |  6330 |     - |   245M |   0 | 421 |  29k|  26k|  99 | 18 |   0 |   0 | 9.797320e+01 | 9.681447e+01 |   1.20%| unknown
 33.7s|     1 |     0 |  6658 |     - |   247M |   0 | 421 |  26k|  26k| 101 | 19 |   0 |   0 | 9.755654e+01 | 9.681447e+01 |   0.77%| unknown
 33.8s|     1 |     0 |  6658 |     - |   247M |   0 | 421 |  26k|  23k| 101 | 19 |   0 |   0 | 9.755654e+01 | 9.681447e+01 |   0.77%| unknown
 33.9s|     1 |     0 |  6874 |     - |   250M |   0 | 421 |  23k|  23k| 108 | 20 |   0 |   0 | 9.681447e+01 | 9.681447e+01 |   0.00%| unknown
 33.9s|     1 |     0 |  6874 |     - |   250M |   0 | 421 |  23k|  23k| 108 | 20 |   0 |   0 | 9.681447e+01 | 9.681447e+01 |   0.00%| unknown

SCIP Status        : problem is solved [optimal solution found]
Solving Time (sec) : 33.89
Solving Nodes      : 1
Primal Bound       : +9.68144707615776e+01 (23 solutions)
Dual Bound         : +9.68144707615776e+01
Gap                : 0.00 %
Solve Status: optimal
Solve Time: 33.89 seconds
